NAME: ./prFile/tspFile/tsp_file56.tsp
COMMENT: TSP file generated by Python
TYPE: TSP
DIMENSION: 40
EDGE_WEIGHT_TYPE: EUC_2D
NODE_COORD_SECTION
1 16 48
2 99 43
3 14 100
4 5 45
5 5 81
6 67 40
7 99 65
8 1 69
9 6 63
10 37 93
11 14 6
12 38 32
13 66 50
14 36 4
15 56 22
16 89 24
17 1 53
18 3 56
19 70 86
20 87 45
21 25 15
22 9 31
23 83 90
24 42 67
25 15 1
26 10 8
27 32 40
28 71 58
29 83 52
30 78 36
31 73 46
32 8 9
33 44 3
34 25 46
35 23 75
36 72 90
37 94 43
38 43 93
39 17 45
40 28 27
EOF
